424 5
10 10 10 10 10 

0 0 0 0 0 0 5 2 14 26 38 50 
0 0 0 0 0 0 3 3 6 7 
1 1 0 0 0 0 3 9 5 4 
1 5 0 0 0 0 1 8 
8 10 0 0 0 0 1 8 
9 3 0 0 0 0 1 8 
7 3 0 0 0 0 1 8 
3 3 0 0 0 0 3 12 10 273 
5 10 0 0 0 0 2 12 10 
4 5 0 0 0 0 1 11 
4 6 0 0 0 0 1 13 
2 4 0 0 0 0 1 13 
0 0 0 0 0 0 1 62 
0 0 0 0 0 0 3 15 17 18 
1 0 0 0 0 1 3 24 19 16 
1 0 0 0 0 6 2 23 20 
1 0 0 0 0 4 2 24 19 
5 0 0 0 0 10 3 23 21 315 
7 0 0 0 0 9 2 23 22 
1 0 0 0 0 3 1 21 
9 0 0 0 0 4 1 22 
5 0 0 0 0 5 1 25 
10 0 0 0 0 5 1 25 
3 0 0 0 0 3 1 25 
0 0 0 0 0 0 1 62 
0 0 0 0 0 0 1 27 
2 0 1 0 0 0 2 30 28 
6 0 5 0 0 0 2 34 29 
3 0 7 0 0 0 2 33 32 
7 0 5 0 0 0 2 35 31 
5 0 6 0 0 0 1 32 
4 0 4 0 0 0 1 36 
6 0 7 0 0 0 1 35 
1 0 2 0 0 0 1 35 
7 0 5 0 0 0 2 37 41 
8 0 8 0 0 0 1 37 
0 0 0 0 0 0 1 62 
0 0 0 0 0 0 3 39 40 41 
7 0 0 1 0 0 1 42 
1 0 0 3 0 0 1 42 
4 0 0 7 0 0 1 42 
8 0 0 9 0 0 2 44 43 
2 0 0 6 0 0 2 46 45 
6 0 0 8 0 0 3 46 45 301 
8 0 0 4 0 0 2 48 47 
7 0 0 4 0 0 1 47 
7 0 0 3 0 0 1 49 
1 0 0 5 0 0 1 49 
0 0 0 0 0 0 1 62 
0 0 0 0 0 0 3 51 52 55 
8 0 0 0 2 0 3 54 53 72 
9 0 0 0 4 0 1 53 
8 0 0 0 10 0 2 57 56 
6 0 0 0 7 0 2 57 56 
1 0 0 0 2 0 2 58 57 
9 0 0 0 6 0 2 60 58 
9 0 0 0 3 0 2 60 59 
10 0 0 0 2 0 1 59 
3 0 0 0 7 0 1 61 
5 0 0 0 7 0 1 61 
0 0 0 0 0 0 1 62 
0 0 0 0 0 0 5 63 75 87 99 111 
0 0 0 0 0 0 4 64 65 67 68 
6 0 1 0 0 0 1 66 
6 0 5 0 0 0 1 66 
5 0 2 0 0 0 2 71 69 
7 0 3 0 0 0 2 72 70 
6 0 6 0 0 0 2 69 398 
9 0 2 0 0 0 1 70 
6 0 10 0 0 0 1 73 
1 0 7 0 0 0 1 73 
1 0 6 0 0 0 1 73 
9 0 8 0 0 0 1 74 
0 0 0 0 0 0 1 123 
0 0 0 0 0 0 4 76 78 80 83 
1 0 1 0 0 0 2 85 77 
3 0 8 0 0 0 1 79 
10 0 9 0 0 0 1 79 
9 0 3 0 0 0 1 81 
9 0 3 0 0 0 1 82 
6 0 6 0 0 0 1 84 
5 0 4 0 0 0 2 85 112 
3 0 7 0 0 0 1 84 
2 0 4 0 0 0 1 86 
9 0 5 0 0 0 1 86 
0 0 0 0 0 0 1 123 
0 0 0 0 0 0 4 88 90 92 93 
7 1 0 0 0 0 1 89 
9 5 0 0 0 0 2 95 91 
2 2 0 0 0 0 2 95 94 
9 5 0 0 0 0 2 97 94 
4 7 0 0 0 0 2 96 95 
1 6 0 0 0 0 2 94 335 
6 6 0 0 0 0 1 96 
7 4 0 0 0 0 1 97 
10 6 0 0 0 0 1 98 
2 8 0 0 0 0 1 98 
0 0 0 0 0 0 1 123 
0 0 0 0 0 0 5 100 102 103 105 109 
8 0 0 0 0 2 3 108 101 218 
8 0 0 0 0 6 1 104 
6 0 0 0 0 4 1 104 
4 0 0 0 0 6 2 108 107 
4 0 0 0 0 3 1 106 
2 0 0 0 0 2 1 106 
5 0 0 0 0 4 1 107 
9 0 0 0 0 10 1 110 
10 0 0 0 0 7 1 110 
10 0 0 0 0 6 1 110 
0 0 0 0 0 0 1 123 
0 0 0 0 0 0 3 112 113 114 
3 0 0 0 1 0 2 116 115 
8 0 0 0 6 0 3 116 115 162 
8 0 0 0 7 0 1 115 
7 0 0 0 5 0 3 120 118 117 
7 0 0 0 7 0 1 117 
6 0 0 0 8 0 1 119 
9 0 0 0 3 0 1 119 
10 0 0 0 5 0 1 121 
9 0 0 0 4 0 1 121 
4 0 0 0 4 0 1 122 
0 0 0 0 0 0 1 123 
0 0 0 0 0 0 5 124 156 188 200 232 
0 0 0 0 0 0 3 125 126 134 
4 2 0 0 1 1 2 138 127 
7 5 0 0 7 3 2 138 127 
4 4 0 0 4 10 2 131 128 
8 4 0 0 6 3 2 133 129 
7 3 0 0 6 2 2 143 130 
9 4 0 0 4 6 2 140 132 
4 7 0 0 4 8 1 133 
8 4 0 0 7 4 1 135 
5 5 0 0 7 4 1 135 
2 5 0 0 6 4 4 149 143 142 137 
6 3 0 0 7 4 3 149 142 136 
10 1 0 0 1 3 1 137 
10 4 0 0 5 4 2 146 139 
5 2 0 0 2 3 2 143 139 
10 2 0 0 4 7 1 141 
1 6 0 0 5 5 1 141 
2 7 0 0 4 3 2 154 144 
8 9 0 0 7 5 3 154 144 281 
6 3 0 0 9 5 1 144 
5 9 0 0 2 3 2 148 145 
8 5 0 0 3 4 4 153 152 151 147 
2 5 0 0 6 8 1 147 
5 3 0 0 4 10 1 150 
1 3 0 0 6 3 1 151 
2 5 0 0 7 4 1 154 
5 10 0 0 4 3 1 155 
6 9 0 0 6 4 1 155 
6 4 0 0 7 9 1 155 
9 9 0 0 5 8 1 155 
2 8 0 0 4 10 1 155 
0 0 0 0 0 0 1 424 
0 0 0 0 0 0 3 157 171 186 
8 0 1 1 0 1 2 185 158 
7 0 5 7 0 6 3 183 182 159 
2 0 7 5 0 4 2 181 160 
8 0 4 4 0 6 1 161 
9 0 4 5 0 6 3 180 179 162 
2 0 5 10 0 10 2 178 163 
6 0 4 5 0 4 1 164 
3 0 7 4 0 5 2 177 165 
4 0 3 6 0 4 1 166 
4 0 2 5 0 6 3 176 175 167 
10 0 6 7 0 7 2 174 168 
6 0 7 5 0 4 2 173 169 
1 0 8 6 0 5 1 170 
7 0 6 7 0 5 1 172 
2 0 4 4 0 5 1 184 
5 0 3 5 0 2 1 187 
3 0 5 4 0 9 2 187 304 
8 0 10 7 0 7 1 187 
10 0 2 7 0 4 1 187 
5 0 4 3 0 3 1 187 
6 0 6 3 0 2 1 187 
10 0 9 3 0 9 1 187 
1 0 6 6 0 4 1 187 
10 0 5 6 0 4 1 187 
6 0 5 2 0 4 1 187 
9 0 3 10 0 5 1 187 
10 0 3 2 0 3 1 187 
10 0 7 4 0 7 1 187 
3 0 5 5 0 2 1 187 
6 0 4 2 0 7 1 187 
0 0 0 0 0 0 1 424 
0 0 0 0 0 0 2 189 190 
8 1 0 0 0 0 2 193 191 
3 5 0 0 0 0 3 194 193 192 
3 6 0 0 0 0 2 194 192 
10 6 0 0 0 0 3 198 197 196 
7 5 0 0 0 0 3 197 195 277 
7 3 0 0 0 0 1 195 
4 7 0 0 0 0 1 196 
5 3 0 0 0 0 1 199 
5 8 0 0 0 0 1 199 
4 6 0 0 0 0 1 199 
0 0 0 0 0 0 5 264 286 298 320 342 
0 0 0 0 0 0 3 201 202 211 
1 1 1 0 3 0 2 213 203 
7 4 4 0 4 0 2 213 203 
7 6 4 0 4 0 2 207 204 
9 5 4 0 6 0 2 210 205 
9 2 4 0 3 0 2 220 206 
7 4 4 0 4 0 2 218 208 
9 6 4 0 3 0 2 210 209 
9 8 10 0 4 0 1 209 
10 8 4 0 3 0 3 225 217 212 
1 7 6 0 7 0 4 225 217 212 339 
4 5 7 0 5 0 4 222 220 217 215 
3 2 3 0 4 0 2 222 214 
7 10 7 0 5 0 2 220 216 
8 4 9 0 4 0 1 215 
6 3 4 0 5 0 1 216 
10 5 8 0 2 0 2 230 219 
7 6 2 0 5 0 2 230 219 
4 5 7 0 3 0 2 230 219 
5 6 1 0 6 0 3 229 224 221 
7 4 7 0 10 0 3 229 224 221 
7 6 5 0 8 0 3 228 227 223 
10 6 4 0 9 0 1 223 
6 3 5 0 6 0 1 226 
4 2 3 0 2 0 1 227 
10 3 2 0 10 0 1 230 
2 8 10 0 5 0 1 231 
5 2 4 0 6 0 1 231 
9 8 8 0 4 0 1 231 
3 6 4 0 4 0 1 231 
6 5 5 0 6 0 1 231 
0 0 0 0 0 0 1 424 
0 0 0 0 0 0 3 233 234 243 
4 0 0 1 1 3 2 245 235 
2 0 0 5 3 1 2 245 235 
1 0 0 3 5 5 2 239 236 
10 0 0 7 7 4 2 242 237 
8 0 0 3 10 7 2 252 238 
2 0 0 3 5 8 2 250 240 
7 0 0 10 6 3 2 242 241 
6 0 0 3 3 3 1 241 
3 0 0 7 7 4 3 257 249 244 
4 0 0 6 6 5 3 257 249 244 
3 0 0 1 2 6 4 254 252 249 247 
8 0 0 5 5 4 2 254 246 
3 0 0 7 5 3 3 252 248 419 
4 0 0 5 3 9 1 247 
2 0 0 6 5 10 1 248 
5 0 0 3 3 7 2 262 251 
2 0 0 6 5 3 2 262 251 
5 0 0 4 2 4 2 262 251 
10 0 0 6 10 6 2 256 253 
7 0 0 5 6 6 2 256 253 
7 0 0 8 7 2 4 261 260 259 255 
5 0 0 5 3 4 1 255 
9 0 0 4 7 4 1 258 
2 0 0 3 6 7 1 259 
3 0 0 7 5 4 1 262 
10 0 0 3 4 7 1 263 
1 0 0 7 8 4 1 263 
9 0 0 5 6 4 1 263 
4 0 0 5 4 4 1 263 
9 0 0 7 1 9 1 263 
0 0 0 0 0 0 1 424 
0 0 0 0 0 0 2 265 284 
3 0 0 1 1 0 2 283 266 
4 0 0 3 5 0 3 282 281 267 
10 0 0 3 7 0 3 280 279 268 
2 0 0 5 5 0 3 278 277 269 
3 0 0 8 6 0 2 276 270 
1 0 0 8 5 0 2 275 271 
6 0 0 7 5 0 1 272 
8 0 0 6 6 0 1 273 
10 0 0 8 7 0 1 274 
6 0 0 2 2 0 1 285 
6 0 0 7 5 0 1 285 
10 0 0 5 4 0 1 285 
4 0 0 3 4 0 1 285 
2 0 0 4 2 0 2 285 311 
7 0 0 5 7 0 1 285 
4 0 0 7 3 0 1 285 
2 0 0 4 8 0 1 285 
10 0 0 4 5 0 1 285 
10 0 0 2 9 0 1 285 
6 0 0 8 4 0 1 285 
0 0 0 0 0 0 1 424 
0 0 0 0 0 0 1 287 
6 0 1 0 0 0 3 291 290 288 
9 0 4 0 0 0 1 289 
10 0 4 0 0 0 3 294 293 292 
5 0 4 0 0 0 3 294 293 292 
7 0 5 0 0 0 3 294 292 354 
10 0 6 0 0 0 2 296 295 
10 0 7 0 0 0 2 296 295 
4 0 4 0 0 0 1 295 
7 0 9 0 0 0 1 297 
9 0 6 0 0 0 1 297 
0 0 0 0 0 0 5 364 376 388 400 412 
0 0 0 0 0 0 1 299 
10 0 0 1 0 1 2 302 300 
7 0 0 3 0 3 1 301 
3 0 0 4 0 3 1 303 
8 0 0 7 0 5 1 303 
5 0 0 8 0 5 2 305 304 
5 0 0 7 0 7 3 315 311 306 
1 0 0 4 0 5 3 311 310 307 
1 0 0 4 0 2 2 310 307 
1 0 0 6 0 7 2 309 308 
10 0 0 4 0 5 4 318 317 314 312 
4 0 0 7 0 9 4 318 317 313 312 
5 0 0 8 0 5 3 317 313 312 
6 0 0 8 0 4 2 317 316 
8 0 0 4 0 4 1 316 
10 0 0 5 0 6 1 316 
7 0 0 5 0 4 1 316 
10 0 0 4 0 5 1 318 
1 0 0 1 0 8 1 319 
5 0 0 4 0 5 2 319 370 
1 0 0 6 0 7 1 319 
0 0 0 0 0 0 1 424 
0 0 0 0 0 0 1 321 
2 0 1 0 0 1 1 322 
2 0 4 0 0 7 2 324 323 
1 0 4 0 0 5 2 325 369 
8 0 5 0 0 9 1 325 
5 0 3 0 0 3 2 327 326 
4 0 8 0 0 4 2 330 328 
5 0 5 0 0 5 3 337 330 329 
10 0 6 0 0 5 2 337 329 
7 0 4 0 0 2 3 333 332 331 
5 0 3 0 0 4 5 340 339 336 335 334 
7 0 5 0 0 10 4 340 339 336 334 
5 0 9 0 0 6 4 340 339 335 334 
5 0 5 0 0 7 4 340 336 335 334 
6 0 6 0 0 8 1 338 
8 0 5 0 0 5 1 338 
9 0 7 0 0 1 1 338 
2 0 3 0 0 5 1 339 
8 0 4 0 0 3 1 341 
10 0 9 0 0 7 1 341 
10 0 4 0 0 3 1 341 
0 0 0 0 0 0 1 424 
0 0 0 0 0 0 2 343 344 
4 3 1 0 0 0 4 351 350 348 347 
6 3 5 0 0 0 4 349 348 345 404 
9 6 4 0 0 0 1 346 
4 4 5 0 0 0 3 356 353 351 
6 4 5 0 0 0 3 353 352 349 
4 5 3 0 0 0 2 356 352 
6 4 7 0 0 0 3 356 355 354 
1 8 3 0 0 0 2 355 353 
4 4 7 0 0 0 1 352 
10 4 6 0 0 0 2 355 354 
3 5 8 0 0 0 1 354 
7 4 5 0 0 0 1 357 
2 7 4 0 0 0 1 357 
7 10 6 0 0 0 1 357 
3 4 6 0 0 0 2 360 358 
3 3 3 0 0 0 2 361 359 
2 6 6 0 0 0 1 362 
6 7 3 0 0 0 1 361 
6 4 10 0 0 0 1 363 
2 5 3 0 0 0 1 363 
0 0 0 0 0 0 1 424 
0 0 0 0 0 0 3 365 367 369 
4 0 1 0 0 0 1 366 
1 0 8 0 0 0 3 372 370 368 
8 0 10 0 0 0 3 372 371 370 
2 0 7 0 0 0 2 374 371 
9 0 4 0 0 0 1 370 
10 0 4 0 0 0 2 374 373 
8 0 3 0 0 0 1 373 
9 0 3 0 0 0 1 373 
7 0 4 0 0 0 2 375 422 
6 0 6 0 0 0 1 375 
0 0 0 0 0 0 1 424 
0 0 0 0 0 0 3 377 380 386 
4 0 0 1 0 0 1 378 
2 0 0 5 0 0 2 382 379 
3 0 0 5 0 0 2 385 381 
8 0 0 5 0 0 1 383 
8 0 0 7 0 0 1 384 
6 0 0 2 0 0 2 384 394 
8 0 0 7 0 0 1 384 
7 0 0 6 0 0 1 387 
4 0 0 7 0 0 1 387 
6 0 0 5 0 0 1 387 
0 0 0 0 0 0 1 424 
0 0 0 0 0 0 4 389 393 397 398 
9 0 0 0 0 1 1 390 
8 0 0 0 0 7 2 396 391 
3 0 0 0 0 3 2 395 392 
5 0 0 0 0 8 1 394 
5 0 0 0 0 7 2 394 421 
2 0 0 0 0 5 1 399 
6 0 0 0 0 5 1 399 
7 0 0 0 0 3 1 399 
5 0 0 0 0 4 1 399 
5 0 0 0 0 7 1 399 
0 0 0 0 0 0 1 424 
0 0 0 0 0 0 2 401 403 
6 0 0 0 0 1 3 407 402 413 
2 0 0 0 0 6 3 410 406 404 
4 0 0 0 0 3 3 410 406 404 
1 0 0 0 0 5 1 405 
1 0 0 0 0 2 1 408 
5 0 0 0 0 8 1 409 
9 0 0 0 0 8 1 408 
3 0 0 0 0 6 1 411 
6 0 0 0 0 7 1 411 
9 0 0 0 0 4 1 411 
0 0 0 0 0 0 1 424 
0 0 0 0 0 0 4 413 414 416 417 
2 1 0 0 0 0 1 415 
4 2 0 0 0 0 1 415 
5 7 0 0 0 0 1 418 
1 7 0 0 0 0 1 418 
3 3 0 0 0 0 1 418 
2 7 0 0 0 0 3 422 421 419 
9 6 0 0 0 0 1 420 
1 8 0 0 0 0 1 423 
10 5 0 0 0 0 1 423 
7 4 0 0 0 0 1 423 
0 0 0 0 0 0 1 424 
0 0 0 0 0 0 0 
